50
    1  1636   485
    2 14495 16326
    3 18715 19248
    4  4810  5421
    5   378   322
    6 15296 15795
    7 18059 18043
    8  2238  2845
    9  6150  4955
   10  7276  9252
   11  2606  1009
   12  5549  5901
   13  2123  1122
   14     1  1094
   15 20045 18738
   16  8418  8574
   17  6579  5715
   18 17120 18882
   19 12313 11367
   20 18773 19984
   21 13058 13299
   22  8125  9433
   23 14027 15682
   24  8261 10072
   25 19240 17874
   26   978   138
   27 15600 13856
   28  8396  7145
   29 19533 17995
   30 10677 11529
   31 14508 16199
   32  2890  3277
   33     1    97
   34 19038 19719
   35 15002 15242
   36 15066 16107
   37   276  1122
   38  2604  1070
   39 15414 16098
   40 13294 13600
   41 14854 16645
   42  6445  7267
   43  2093  1972
   44  8316  9895
   45  3523  3213
   46 19320 19748
   47  8566  9487
   48 12274 11923
   49 15284 17029
   50  6749  5674
20001
